Maximize
  obj: 3.7 A1 + 5.2 A2 + 6.1 A3 + 9.3 B1 + 9.6 B2 + 4.8 C1 + 7.2 C2 + 9.1 C3 + 2.6 D1 + 5.4 D2 + 5.8 D3 + 6.9 D4
Subject To
  12 A1 + 16 A2 + 18 A3 + 21 B1 + 24 B2 + 18 C1 + 21 C2 + 28 C3 + 12 D1 + 15 D2 + 18 D3 + 24 D4 <= 80
  A1 + A2 + A3 <= 1
  B1 + B2 <= 1
  C1 + C2 + C3 <= 1
  D1 + D2 + D3 + D4 <= 1
Bounds
Binaries
  A1 A2 A3 B1 B2 C1 C2 C3 D1 D2 D3 D4
End
